Input: forum-13.prec25.dzn
============================================================
Total Runtime: 11.6298 seconds
Input parsing: 0.0011 seconds
Constraint building: 2.1179 seconds
MaxSAT solving: 6.0172 seconds
============================================================

Total variables: 470993
Total clauses: 772334
MaxSAT found with cost: 0
NO SOLUTION FOUND
